NAME          
ROWS
 N  OBJ
 L  c2
 L  c3
 L  c4
 L  c5
 L  c6
 G  c1
COLUMNS
    ss[1]     c1        1
    ss[1]     OBJ       1000
    s[1]      c2        1
    s[1]      OBJ       -1000
    s[2]      c3        1
    s[2]      OBJ       -1000
    s[3]      c4        1
    s[3]      OBJ       -1000
    s[4]      c5        1
    s[4]      OBJ       -1000
    s[5]      c6        1
    s[5]      OBJ       -1000
    MARKER    'MARKER'                 'INTORG'
    x[1]      c2        564
    x[1]      c3        69
    x[1]      c4        50
    x[1]      c5        564
    x[1]      c6        890
    x[1]      c1        556
    x[1]      OBJ       -228
    x[2]      c2        573
    x[2]      c3        120
    x[2]      c4        196
    x[2]      c5        379
    x[2]      c6        113
    x[2]      c1        125
    x[2]      OBJ       -467
    x[3]      c2        644
    x[3]      c3        707
    x[3]      c4        633
    x[3]      c5        11
    x[3]      c6        529
    x[3]      c1        736
    x[3]      OBJ       -35
    x[4]      c2        578
    x[4]      c3        768
    x[4]      c4        827
    x[4]      c5        703
    x[4]      c6        561
    x[4]      c1        557
    x[4]      OBJ       -331
    x[5]      c2        35
    x[5]      c3        617
    x[5]      c4        922
    x[5]      c5        236
    x[5]      c6        741
    x[5]      c1        301
    x[5]      OBJ       -270
    x[6]      c2        292
    x[6]      c3        344
    x[6]      c4        782
    x[6]      c5        624
    x[6]      c6        55
    x[6]      c1        6
    x[6]      OBJ       -845
    x[7]      c2        982
    x[7]      c3        512
    x[7]      c4        434
    x[7]      c5        107
    x[7]      c6        816
    x[7]      c1        111
    x[7]      OBJ       -465
    x[8]      c2        294
    x[8]      c3        212
    x[8]      c4        701
    x[8]      c5        909
    x[8]      c6        259
    x[8]      c1        16
    x[8]      OBJ       -696
    x[9]      c2        315
    x[9]      c3        763
    x[9]      c4        280
    x[9]      c5        335
    x[9]      c6        722
    x[9]      c1        704
    x[9]      OBJ       -144
    x[10]     c2        809
    x[10]     c3        553
    x[10]     c4        81
    x[10]     c5        786
    x[10]     c6        134
    x[10]     c1        952
    x[10]     OBJ       -19
    x[11]     c2        523
    x[11]     c3        141
    x[11]     c4        345
    x[11]     c5        690
    x[11]     c6        960
    x[11]     c1        408
    x[11]     OBJ       -377
    x[12]     c2        94
    x[12]     c3        463
    x[12]     c4        726
    x[12]     c5        595
    x[12]     c6        787
    x[12]     c1        492
    x[12]     OBJ       -207
    x[13]     c2        663
    x[13]     c3        598
    x[13]     c4        793
    x[13]     c5        161
    x[13]     c6        58
    x[13]     c1        163
    x[13]     OBJ       -630
    x[14]     c2        780
    x[14]     c3        582
    x[14]     c4        76
    x[14]     c5        477
    x[14]     c6        952
    x[14]     c1        938
    x[14]     OBJ       -88
    x[15]     c2        949
    x[15]     c3        691
    x[15]     c4        23
    x[15]     c5        127
    x[15]     c6        303
    x[15]     c1        315
    x[15]     OBJ       -544
    x[16]     c2        36
    x[16]     c3        647
    x[16]     c4        732
    x[16]     c5        33
    x[16]     c6        567
    x[16]     c1        949
    x[16]     OBJ       221
    x[17]     c2        166
    x[17]     c3        772
    x[17]     c4        648
    x[17]     c5        387
    x[17]     c6        377
    x[17]     c1        670
    x[17]     OBJ       -1
    x[18]     c2        798
    x[18]     c3        404
    x[18]     c4        493
    x[18]     c5        319
    x[18]     c6        642
    x[18]     c1        1000
    x[18]     OBJ       -85
    x[19]     c2        640
    x[19]     c3        238
    x[19]     c4        752
    x[19]     c5        663
    x[19]     c6        99
    x[19]     c1        457
    x[19]     OBJ       -440
    x[20]     c2        526
    x[20]     c3        295
    x[20]     c4        532
    x[20]     c5        627
    x[20]     c6        110
    x[20]     c1        816
    x[20]     OBJ       -53
    x[21]     c2        176
    x[21]     c3        375
    x[21]     c4        883
    x[21]     c5        311
    x[21]     c6        761
    x[21]     c1        357
    x[21]     OBJ       -501
    x[22]     c2        745
    x[22]     c3        302
    x[22]     c4        475
    x[22]     c5        205
    x[22]     c6        521
    x[22]     c1        495
    x[22]     OBJ       -404
    x[23]     c2        816
    x[23]     c3        842
    x[23]     c4        583
    x[23]     c5        133
    x[23]     c6        374
    x[23]     c1        916
    x[23]     OBJ       156
    x[24]     c2        748
    x[24]     c3        771
    x[24]     c4        111
    x[24]     c5        998
    x[24]     c6        12
    x[24]     c1        852
    x[24]     OBJ       -54
    x[25]     c2        238
    x[25]     c3        338
    x[25]     c4        594
    x[25]     c5        827
    x[25]     c6        927
    x[25]     c1        614
    x[25]     OBJ       -349
    x[26]     c2        369
    x[26]     c3        363
    x[26]     c4        687
    x[26]     c5        216
    x[26]     c6        939
    x[26]     c1        161
    x[26]     OBJ       -617
    x[27]     c2        542
    x[27]     c3        496
    x[27]     c4        134
    x[27]     c5        201
    x[27]     c6        208
    x[27]     c1        60
    x[27]     OBJ       -649
    x[28]     c2        855
    x[28]     c3        99
    x[28]     c4        713
    x[28]     c5        237
    x[28]     c6        902
    x[28]     c1        382
    x[28]     OBJ       -551
    x[29]     c2        95
    x[29]     c3        915
    x[29]     c4        290
    x[29]     c5        341
    x[29]     c6        732
    x[29]     c1        373
    x[29]     OBJ       -415
    x[30]     c2        191
    x[30]     c3        41
    x[30]     c4        442
    x[30]     c5        645
    x[30]     c6        213
    x[30]     c1        570
    x[30]     OBJ       -61
    x[31]     c2        121
    x[31]     c3        102
    x[31]     c4        115
    x[31]     c5        578
    x[31]     c6        680
    x[31]     c1        182
    x[31]     OBJ       -268
    x[32]     c2        510
    x[32]     c3        799
    x[32]     c4        491
    x[32]     c5        536
    x[32]     c6        437
    x[32]     c1        934
    x[32]     OBJ       -78
    x[33]     c2        58
    x[33]     c3        190
    x[33]     c4        462
    x[33]     c5        264
    x[33]     c6        387
    x[33]     c1        129
    x[33]     OBJ       -237
    x[34]     c2        633
    x[34]     c3        413
    x[34]     c4        797
    x[34]     c5        511
    x[34]     c6        616
    x[34]     c1        542
    x[34]     OBJ       -548
    x[35]     c2        478
    x[35]     c3        362
    x[35]     c4        481
    x[35]     c5        171
    x[35]     c6        8
    x[35]     c1        767
    x[35]     OBJ       226
    x[36]     c2        24
    x[36]     c3        422
    x[36]     c4        667
    x[36]     c5        977
    x[36]     c6        155
    x[36]     c1        964
    x[36]     OBJ       180
    x[37]     c2        352
    x[37]     c3        747
    x[37]     c4        456
    x[37]     c5        658
    x[37]     c6        325
    x[37]     c1        896
    x[37]     OBJ       274
    x[38]     c2        75
    x[38]     c3        290
    x[38]     c4        818
    x[38]     c5        781
    x[38]     c6        34
    x[38]     c1        350
    x[38]     OBJ       -138
    x[39]     c2        480
    x[39]     c3        485
    x[39]     c4        419
    x[39]     c5        14
    x[39]     c6        466
    x[39]     c1        178
    x[39]     OBJ       -258
    x[40]     c2        448
    x[40]     c3        775
    x[40]     c4        817
    x[40]     c5        142
    x[40]     c6        134
    x[40]     c1        557
    x[40]     OBJ       -134
    x[41]     c2        516
    x[41]     c3        403
    x[41]     c4        387
    x[41]     c5        934
    x[41]     c6        494
    x[41]     c1        975
    x[41]     OBJ       -55
    x[42]     c2        900
    x[42]     c3        429
    x[42]     c4        30
    x[42]     c5        691
    x[42]     c6        206
    x[42]     c1        70
    x[42]     OBJ       -788
    x[43]     c2        439
    x[43]     c3        759
    x[43]     c4        897
    x[43]     c5        396
    x[43]     c6        454
    x[43]     c1        226
    x[43]     OBJ       -612
    x[44]     c2        331
    x[44]     c3        676
    x[44]     c4        73
    x[44]     c5        109
    x[44]     c6        55
    x[44]     c1        356
    x[44]     OBJ       -128
    x[45]     c2        217
    x[45]     c3        605
    x[45]     c4        832
    x[45]     c5        424
    x[45]     c6        181
    x[45]     c1        404
    x[45]     OBJ       -458
    x[46]     c2        600
    x[46]     c3        474
    x[46]     c4        99
    x[46]     c5        154
    x[46]     c6        875
    x[46]     c1        79
    x[46]     OBJ       -672
    x[47]     c2        656
    x[47]     c3        670
    x[47]     c4        312
    x[47]     c5        400
    x[47]     c6        905
    x[47]     c1        833
    x[47]     OBJ       -228
    x[48]     c2        347
    x[48]     c3        170
    x[48]     c4        926
    x[48]     c5        36
    x[48]     c6        650
    x[48]     c1        616
    x[48]     OBJ       -48
    x[49]     c2        978
    x[49]     c3        211
    x[49]     c4        522
    x[49]     c5        428
    x[49]     c6        919
    x[49]     c1        575
    x[49]     OBJ       -293
    x[50]     c2        337
    x[50]     c3        440
    x[50]     c4        391
    x[50]     c5        942
    x[50]     c6        261
    x[50]     c1        987
    x[50]     OBJ       428
    x[51]     c2        559
    x[51]     c3        750
    x[51]     c4        595
    x[51]     c5        990
    x[51]     c6        797
    x[51]     c1        340
    x[51]     OBJ       -688
    x[52]     c2        649
    x[52]     c3        721
    x[52]     c4        325
    x[52]     c5        251
    x[52]     c6        403
    x[52]     c1        794
    x[52]     OBJ       -9
    x[53]     c2        583
    x[53]     c3        203
    x[53]     c4        762
    x[53]     c5        541
    x[53]     c6        776
    x[53]     c1        321
    x[53]     OBJ       -328
    x[54]     c2        628
    x[54]     c3        285
    x[54]     c4        830
    x[54]     c5        411
    x[54]     c6        53
    x[54]     c1        337
    x[54]     OBJ       -494
    x[55]     c2        839
    x[55]     c3        7
    x[55]     c4        340
    x[55]     c5        999
    x[55]     c6        267
    x[55]     c1        580
    x[55]     OBJ       -76
    x[56]     c2        397
    x[56]     c3        467
    x[56]     c4        653
    x[56]     c5        32
    x[56]     c6        100
    x[56]     c1        920
    x[56]     OBJ       583
    x[57]     c2        285
    x[57]     c3        814
    x[57]     c4        569
    x[57]     c5        790
    x[57]     c6        622
    x[57]     c1        425
    x[57]     OBJ       -413
    x[58]     c2        156
    x[58]     c3        346
    x[58]     c4        616
    x[58]     c5        919
    x[58]     c6        113
    x[58]     c1        170
    x[58]     OBJ       -531
    x[59]     c2        45
    x[59]     c3        498
    x[59]     c4        504
    x[59]     c5        65
    x[59]     c6        161
    x[59]     c1        955
    x[59]     OBJ       240
    x[60]     c2        461
    x[60]     c3        214
    x[60]     c4        631
    x[60]     c5        544
    x[60]     c6        761
    x[60]     c1        581
    x[60]     OBJ       -168
    x[61]     c2        2
    x[61]     c3        379
    x[61]     c4        729
    x[61]     c5        930
    x[61]     c6        110
    x[61]     c1        739
    x[61]     OBJ       -9
    x[62]     c2        866
    x[62]     c3        148
    x[62]     c4        154
    x[62]     c5        221
    x[62]     c6        364
    x[62]     c1        622
    x[62]     OBJ       -145
    x[63]     c2        832
    x[63]     c3        809
    x[63]     c4        638
    x[63]     c5        585
    x[63]     c6        755
    x[63]     c1        473
    x[63]     OBJ       -424
    x[64]     c2        295
    x[64]     c3        873
    x[64]     c4        74
    x[64]     c5        702
    x[64]     c6        176
    x[64]     c1        789
    x[64]     OBJ       228
    x[65]     c2        747
    x[65]     c3        937
    x[65]     c4        746
    x[65]     c5        893
    x[65]     c6        267
    x[65]     c1        946
    x[65]     OBJ       -180
    x[66]     c2        391
    x[66]     c3        607
    x[66]     c4        541
    x[66]     c5        495
    x[66]     c6        388
    x[66]     c1        499
    x[66]     OBJ       -332
    x[67]     c2        617
    x[67]     c3        345
    x[67]     c4        998
    x[67]     c5        568
    x[67]     c6        715
    x[67]     c1        666
    x[67]     OBJ       -399
    x[68]     c2        118
    x[68]     c3        313
    x[68]     c4        483
    x[68]     c5        877
    x[68]     c6        753
    x[68]     c1        546
    x[68]     OBJ       -66
    x[69]     c2        310
    x[69]     c3        982
    x[69]     c4        510
    x[69]     c5        559
    x[69]     c6        690
    x[69]     c1        630
    x[69]     OBJ       -22
    x[70]     c2        159
    x[70]     c3        523
    x[70]     c4        857
    x[70]     c5        472
    x[70]     c6        662
    x[70]     c1        997
    x[70]     OBJ       331
    x[71]     c2        602
    x[71]     c3        768
    x[71]     c4        849
    x[71]     c5        686
    x[71]     c6        632
    x[71]     c1        462
    x[71]     OBJ       -597
    x[72]     c2        422
    x[72]     c3        945
    x[72]     c4        655
    x[72]     c5        893
    x[72]     c6        570
    x[72]     c1        750
    x[72]     OBJ       -409
    x[73]     c2        414
    x[73]     c3        131
    x[73]     c4        196
    x[73]     c5        35
    x[73]     c6        991
    x[73]     c1        841
    x[73]     OBJ       297
    x[74]     c2        190
    x[74]     c3        148
    x[74]     c4        80
    x[74]     c5        573
    x[74]     c6        105
    x[74]     c1        795
    x[74]     OBJ       241
    x[75]     c2        936
    x[75]     c3        814
    x[75]     c4        220
    x[75]     c5        560
    x[75]     c6        831
    x[75]     c1        2
    x[75]     OBJ       -724
    x[76]     c2        384
    x[76]     c3        203
    x[76]     c4        560
    x[76]     c5        328
    x[76]     c6        951
    x[76]     c1        522
    x[76]     OBJ       -95
    x[77]     c2        170
    x[77]     c3        595
    x[77]     c4        301
    x[77]     c5        363
    x[77]     c6        101
    x[77]     c1        778
    x[77]     OBJ       -8
    x[78]     c2        791
    x[78]     c3        107
    x[78]     c4        954
    x[78]     c5        994
    x[78]     c6        644
    x[78]     c1        42
    x[78]     OBJ       -977
    x[79]     c2        576
    x[79]     c3        62
    x[79]     c4        556
    x[79]     c5        971
    x[79]     c6        788
    x[79]     c1        714
    x[79]     OBJ       -196
    x[80]     c2        524
    x[80]     c3        105
    x[80]     c4        1000
    x[80]     c5        930
    x[80]     c6        91
    x[80]     c1        645
    x[80]     OBJ       -257
    x[81]     c2        181
    x[81]     c3        519
    x[81]     c4        919
    x[81]     c5        129
    x[81]     c6        87
    x[81]     c1        855
    x[81]     OBJ       446
    x[82]     c2        561
    x[82]     c3        86
    x[82]     c4        92
    x[82]     c5        556
    x[82]     c6        537
    x[82]     c1        396
    x[82]     OBJ       -92
    x[83]     c2        931
    x[83]     c3        497
    x[83]     c4        16
    x[83]     c5        174
    x[83]     c6        223
    x[83]     c1        768
    x[83]     OBJ       -12
    x[84]     c2        338
    x[84]     c3        930
    x[84]     c4        617
    x[84]     c5        498
    x[84]     c6        817
    x[84]     c1        392
    x[84]     OBJ       -335
    x[85]     c2        739
    x[85]     c3        460
    x[85]     c4        909
    x[85]     c5        782
    x[85]     c6        865
    x[85]     c1        141
    x[85]     OBJ       -616
    x[86]     c2        47
    x[86]     c3        319
    x[86]     c4        703
    x[86]     c5        258
    x[86]     c6        854
    x[86]     c1        544
    x[86]     OBJ       -106
    x[87]     c2        697
    x[87]     c3        199
    x[87]     c4        313
    x[87]     c5        393
    x[87]     c6        375
    x[87]     c1        847
    x[87]     OBJ       274
    x[88]     c2        998
    x[88]     c3        918
    x[88]     c4        881
    x[88]     c5        706
    x[88]     c6        833
    x[88]     c1        263
    x[88]     OBJ       -1061
    x[89]     c2        792
    x[89]     c3        143
    x[89]     c4        67
    x[89]     c5        411
    x[89]     c6        358
    x[89]     c1        325
    x[89]     OBJ       -117
    x[90]     c2        779
    x[90]     c3        367
    x[90]     c4        242
    x[90]     c5        817
    x[90]     c6        960
    x[90]     c1        227
    x[90]     OBJ       -800
    x[91]     c2        727
    x[91]     c3        628
    x[91]     c4        835
    x[91]     c5        928
    x[91]     c6        752
    x[91]     c1        765
    x[91]     OBJ       -427
    x[92]     c2        190
    x[92]     c3        39
    x[92]     c4        358
    x[92]     c5        224
    x[92]     c6        331
    x[92]     c1        128
    x[92]     OBJ       -111
    x[93]     c2        320
    x[93]     c3        5
    x[93]     c4        386
    x[93]     c5        953
    x[93]     c6        752
    x[93]     c1        10
    x[93]     OBJ       -520
    x[94]     c2        787
    x[94]     c3        81
    x[94]     c4        911
    x[94]     c5        908
    x[94]     c6        966
    x[94]     c1        973
    x[94]     OBJ       -191
    x[95]     c2        600
    x[95]     c3        843
    x[95]     c4        192
    x[95]     c5        221
    x[95]     c6        787
    x[95]     c1        162
    x[95]     OBJ       -743
    x[96]     c2        77
    x[96]     c3        37
    x[96]     c4        789
    x[96]     c5        698
    x[96]     c6        165
    x[96]     c1        743
    x[96]     OBJ       368
    x[97]     c2        526
    x[97]     c3        437
    x[97]     c4        751
    x[97]     c5        664
    x[97]     c6        601
    x[97]     c1        208
    x[97]     OBJ       -604
    x[98]     c2        407
    x[98]     c3        918
    x[98]     c4        909
    x[98]     c5        216
    x[98]     c6        638
    x[98]     c1        223
    x[98]     OBJ       -810
    x[99]     c2        620
    x[99]     c3        174
    x[99]     c4        305
    x[99]     c5        417
    x[99]     c6        833
    x[99]     c1        981
    x[99]     OBJ       329
    x[100]    c2        462
    x[100]    c3        824
    x[100]    c4        130
    x[100]    c5        260
    x[100]    c6        741
    x[100]    c1        143
    x[100]    OBJ       -619
RHS
    rhs       c2        24132
    rhs       c3        22992
    rhs       c4        26091
    rhs       c5        25192
    rhs       c6        25309
    rhs       c1        2632
RANGES
BOUNDS
 LO bounds    ss[1]     0
 PL bounds    ss[1]
 MI bounds    s[1]
 UP bounds    s[1]      0
 MI bounds    s[2]
 UP bounds    s[2]      0
 MI bounds    s[3]
 UP bounds    s[3]      0
 MI bounds    s[4]
 UP bounds    s[4]      0
 MI bounds    s[5]
 UP bounds    s[5]      0
 BV bounds    x[1]
 BV bounds    x[2]
 BV bounds    x[3]
 BV bounds    x[4]
 BV bounds    x[5]
 BV bounds    x[6]
 BV bounds    x[7]
 BV bounds    x[8]
 BV bounds    x[9]
 BV bounds    x[10]
 BV bounds    x[11]
 BV bounds    x[12]
 BV bounds    x[13]
 BV bounds    x[14]
 BV bounds    x[15]
 BV bounds    x[16]
 BV bounds    x[17]
 BV bounds    x[18]
 BV bounds    x[19]
 BV bounds    x[20]
 BV bounds    x[21]
 BV bounds    x[22]
 BV bounds    x[23]
 BV bounds    x[24]
 BV bounds    x[25]
 BV bounds    x[26]
 BV bounds    x[27]
 BV bounds    x[28]
 BV bounds    x[29]
 BV bounds    x[30]
 BV bounds    x[31]
 BV bounds    x[32]
 BV bounds    x[33]
 BV bounds    x[34]
 BV bounds    x[35]
 BV bounds    x[36]
 BV bounds    x[37]
 BV bounds    x[38]
 BV bounds    x[39]
 BV bounds    x[40]
 BV bounds    x[41]
 BV bounds    x[42]
 BV bounds    x[43]
 BV bounds    x[44]
 BV bounds    x[45]
 BV bounds    x[46]
 BV bounds    x[47]
 BV bounds    x[48]
 BV bounds    x[49]
 BV bounds    x[50]
 BV bounds    x[51]
 BV bounds    x[52]
 BV bounds    x[53]
 BV bounds    x[54]
 BV bounds    x[55]
 BV bounds    x[56]
 BV bounds    x[57]
 BV bounds    x[58]
 BV bounds    x[59]
 BV bounds    x[60]
 BV bounds    x[61]
 BV bounds    x[62]
 BV bounds    x[63]
 BV bounds    x[64]
 BV bounds    x[65]
 BV bounds    x[66]
 BV bounds    x[67]
 BV bounds    x[68]
 BV bounds    x[69]
 BV bounds    x[70]
 BV bounds    x[71]
 BV bounds    x[72]
 BV bounds    x[73]
 BV bounds    x[74]
 BV bounds    x[75]
 BV bounds    x[76]
 BV bounds    x[77]
 BV bounds    x[78]
 BV bounds    x[79]
 BV bounds    x[80]
 BV bounds    x[81]
 BV bounds    x[82]
 BV bounds    x[83]
 BV bounds    x[84]
 BV bounds    x[85]
 BV bounds    x[86]
 BV bounds    x[87]
 BV bounds    x[88]
 BV bounds    x[89]
 BV bounds    x[90]
 BV bounds    x[91]
 BV bounds    x[92]
 BV bounds    x[93]
 BV bounds    x[94]
 BV bounds    x[95]
 BV bounds    x[96]
 BV bounds    x[97]
 BV bounds    x[98]
 BV bounds    x[99]
 BV bounds    x[100]
ENDATA
